c WARNING: for repeatability, setting FPU to use double precision
d VARIABLES            71486        
d CONSTRAINTS          290003       
c ============================[ Problem Statistics ]=============================
c |                                                                             |
c |  Number of variables:         71486                                         |
c |  Number of clauses:          290003                                         |
c |  Parse time:                   0.04 s                                       |
c |                                                                             |
c ============================[ Search Statistics ]==============================
c | Conflicts |          ORIGINAL         |          LEARNT          | Progress |
c |           |    Vars  Clauses Literals |    Limit  Clauses Lit/Cl |          |
c ===============================================================================
c |       100 |   53433   243961   595129 |    89452      100     10 | 25.254 % |
c |       250 |   53433   243961   595129 |    98397      250     47 | 25.254 % |
c |       475 |   53433   243961   595129 |   108237      475     63 | 25.254 % |
c |       812 |   53433   243961   595129 |   119061      812     82 | 25.254 % |
c |      1318 |   53433   243961   595129 |   130967     1318     98 | 25.254 % |
c |      2077 |   53433   243961   595129 |   144063     2077     78 | 25.254 % |
c |      3216 |   53433   243961   595129 |   158470     3216    114 | 25.254 % |
c |      4924 |   53433   243961   595129 |   174317     4924     95 | 25.254 % |
c |      7486 |   53433   243961   595129 |   191749     7486     86 | 25.254 % |
c |     11330 |   53433   243961   595129 |   210924    11330     89 | 25.254 % |
c |     17096 |   53433   243961   595129 |   232016    17096    116 | 25.254 % |
c |     25745 |   53433   243961   595129 |   255218    25745    135 | 25.254 % |
c |     38719 |   53433   243961   595129 |   280739    38719    143 | 25.254 % |
c |     58180 |   53433   243961   595129 |   308813    58180    142 | 25.254 % |
c |     87372 |   53433   243961   595129 |   339695    87372    139 | 25.254 % |
c |    131161 |   53433   243961   595129 |   373664   131161    136 | 25.254 % |
c |    196845 |   53433   243961   595129 |   411031   196845    150 | 25.254 % |
c |    295371 |   53433   243961   595129 |   452134   295371    167 | 25.254 % |
c |    443160 |   53433   243961   595129 |   497347   443160    172 | 25.254 % |
c |    664843 |   53433   243961   595129 |   547082   173983    165 | 25.254 % |
c |    997368 |   53433   243961   595129 |   601790   506508    176 | 25.254 % |
c |   1496156 |   53433   243961   595129 |   661969   392705    174 | 25.254 % |
c |   2244338 |   53433   243961   595129 |   728166   483828    212 | 25.254 % |
c |   3366612 |   53433   243961   595129 |   800983   173603    143 | 25.254 % |
c ===============================================================================
c restarts              : 6459
c conflicts             : 3707010        (2068 /sec)
c decisions             : 9923877        (0.00 % random) (5536 /sec)
c propagations          : 3678055878     (2051690 /sec)
c conflict literals     : 726402086      (28.13 % deleted)
d RESTARTS             6459
d FAILURES             3707010      
d NODES                9923877      
d BACKTRACKS           9923877      
d PROPAGATIONS         3678055878   
d NOGOODSIZE           195.95 
d MEMORY               1039.00 
d TIME                 1792.7 

s UNKNOWN
